(set-logic HORN)
(declare-datatypes ((Nat_1 0)) (((Z_0 ) (S_0 (unS_0 Nat_1)))))
(declare-fun diseqNat_0 (Nat_1 Nat_1) Bool)
(declare-fun unS_1 (Nat_1 Nat_1) Bool)
(declare-fun isZ_0 (Nat_1) Bool)
(declare-fun isS_0 (Nat_1) Bool)
(assert (forall ((x_89 Nat_1) (x_88 Nat_1))
	(=> (= x_89 (S_0 x_88))
	    (unS_1 x_88 x_89))))
(assert (isZ_0 Z_0))
(assert (forall ((x_90 Nat_1))
	(isS_0 (S_0 x_90))))
(assert (forall ((x_91 Nat_1))
	(diseqNat_0 Z_0 (S_0 x_91))))
(assert (forall ((x_92 Nat_1))
	(diseqNat_0 (S_0 x_92) Z_0)))
(assert (forall ((x_93 Nat_1) (x_94 Nat_1))
	(=> (diseqNat_0 x_93 x_94)
	    (diseqNat_0 (S_0 x_93) (S_0 x_94)))))
(declare-fun add_0 (Nat_1 Nat_1 Nat_1) Bool)
(declare-fun minus_1 (Nat_1 Nat_1 Nat_1) Bool)
(declare-fun le_0 (Nat_1 Nat_1) Bool)
(declare-fun ge_0 (Nat_1 Nat_1) Bool)
(declare-fun lt_0 (Nat_1 Nat_1) Bool)
(declare-fun gt_0 (Nat_1 Nat_1) Bool)
(declare-fun mult_0 (Nat_1 Nat_1 Nat_1) Bool)
(declare-fun div_0 (Nat_1 Nat_1 Nat_1) Bool)
(declare-fun mod_0 (Nat_1 Nat_1 Nat_1) Bool)
(assert (forall ((y_13 Nat_1))
	(add_0 y_13 Z_0 y_13)))
(assert (forall ((x_86 Nat_1) (y_13 Nat_1) (r_0 Nat_1))
	(=> (add_0 r_0 x_86 y_13)
	    (add_0 (S_0 r_0) (S_0 x_86) y_13))))
(assert (forall ((y_13 Nat_1))
	(minus_1 Z_0 Z_0 y_13)))
(assert (forall ((x_86 Nat_1) (y_13 Nat_1) (r_0 Nat_1))
	(=> (minus_1 r_0 x_86 y_13)
	    (minus_1 (S_0 r_0) (S_0 x_86) y_13))))
(assert (forall ((y_13 Nat_1))
	(le_0 Z_0 y_13)))
(assert (forall ((x_86 Nat_1) (y_13 Nat_1))
	(=> (le_0 x_86 y_13)
	    (le_0 (S_0 x_86) (S_0 y_13)))))
(assert (forall ((y_13 Nat_1))
	(ge_0 y_13 Z_0)))
(assert (forall ((x_86 Nat_1) (y_13 Nat_1))
	(=> (ge_0 x_86 y_13)
	    (ge_0 (S_0 x_86) (S_0 y_13)))))
(assert (forall ((y_13 Nat_1))
	(lt_0 Z_0 (S_0 y_13))))
(assert (forall ((x_86 Nat_1) (y_13 Nat_1))
	(=> (lt_0 x_86 y_13)
	    (lt_0 (S_0 x_86) (S_0 y_13)))))
(assert (forall ((y_13 Nat_1))
	(gt_0 (S_0 y_13) Z_0)))
(assert (forall ((x_86 Nat_1) (y_13 Nat_1))
	(=> (gt_0 x_86 y_13)
	    (gt_0 (S_0 x_86) (S_0 y_13)))))
(assert (forall ((y_13 Nat_1))
	(mult_0 Z_0 Z_0 y_13)))
(assert (forall ((x_86 Nat_1) (y_13 Nat_1) (r_0 Nat_1) (z_11 Nat_1))
	(=>	(and (mult_0 r_0 x_86 y_13)
			(add_0 z_11 r_0 y_13))
		(mult_0 z_11 (S_0 x_86) y_13))))
(assert (forall ((x_86 Nat_1) (y_13 Nat_1))
	(=> (lt_0 x_86 y_13)
	    (div_0 Z_0 x_86 y_13))))
(assert (forall ((x_86 Nat_1) (y_13 Nat_1) (r_0 Nat_1) (z_11 Nat_1))
	(=>	(and (ge_0 x_86 y_13)
			(minus_1 z_11 x_86 y_13)
			(div_0 r_0 z_11 y_13))
		(div_0 (S_0 r_0) x_86 y_13))))
(assert (forall ((x_86 Nat_1) (y_13 Nat_1))
	(=> (lt_0 x_86 y_13)
	    (mod_0 x_86 x_86 y_13))))
(assert (forall ((x_86 Nat_1) (y_13 Nat_1) (r_0 Nat_1) (z_11 Nat_1))
	(=>	(and (ge_0 x_86 y_13)
			(minus_1 z_11 x_86 y_13)
			(mod_0 r_0 z_11 y_13))
		(mod_0 r_0 x_86 y_13))))
(declare-datatypes ((Nat_0 0)) (((zero_0 ) (succ_0 (p_0 Nat_0)))))
(declare-fun diseqNat_1 (Nat_0 Nat_0) Bool)
(declare-fun p_1 (Nat_0 Nat_0) Bool)
(declare-fun iszero_0 (Nat_0) Bool)
(declare-fun issucc_0 (Nat_0) Bool)
(assert (forall ((x_97 Nat_0) (x_96 Nat_0))
	(=> (= x_97 (succ_0 x_96))
	    (p_1 x_96 x_97))))
(assert (iszero_0 zero_0))
(assert (forall ((x_98 Nat_0))
	(issucc_0 (succ_0 x_98))))
(assert (forall ((x_99 Nat_0))
	(diseqNat_1 zero_0 (succ_0 x_99))))
(assert (forall ((x_100 Nat_0))
	(diseqNat_1 (succ_0 x_100) zero_0)))
(assert (forall ((x_101 Nat_0) (x_102 Nat_0))
	(=> (diseqNat_1 x_101 x_102)
	    (diseqNat_1 (succ_0 x_101) (succ_0 x_102)))))
(declare-datatypes ((list_0 0)) (((nil_0 ) (cons_0 (head_0 Nat_0) (tail_0 list_0)))))
(declare-fun diseqlist_0 (list_0 list_0) Bool)
(declare-fun head_1 (Nat_0 list_0) Bool)
(declare-fun tail_1 (list_0 list_0) Bool)
(declare-fun isnil_0 (list_0) Bool)
(declare-fun iscons_0 (list_0) Bool)
(assert (forall ((x_106 list_0) (x_104 Nat_0) (x_105 list_0))
	(=> (= x_106 (cons_0 x_104 x_105))
	    (head_1 x_104 x_106))))
(assert (forall ((x_106 list_0) (x_104 Nat_0) (x_105 list_0))
	(=> (= x_106 (cons_0 x_104 x_105))
	    (tail_1 x_105 x_106))))
(assert (isnil_0 nil_0))
(assert (forall ((x_107 Nat_0) (x_108 list_0))
	(iscons_0 (cons_0 x_107 x_108))))
(assert (forall ((x_109 Nat_0) (x_110 list_0))
	(diseqlist_0 nil_0 (cons_0 x_109 x_110))))
(assert (forall ((x_111 Nat_0) (x_112 list_0))
	(diseqlist_0 (cons_0 x_111 x_112) nil_0)))
(assert (forall ((x_113 Nat_0) (x_114 list_0) (x_115 Nat_0) (x_116 list_0))
	(=> (diseqNat_1 x_113 x_115)
	    (diseqlist_0 (cons_0 x_113 x_114) (cons_0 x_115 x_116)))))
(assert (forall ((x_113 Nat_0) (x_114 list_0) (x_115 Nat_0) (x_116 list_0))
	(=> (diseqlist_0 x_114 x_116)
	    (diseqlist_0 (cons_0 x_113 x_114) (cons_0 x_115 x_116)))))
(declare-fun take_0 (list_0 Nat_0 list_0) Bool)
(assert (forall ((x_0 Nat_0) (y_0 list_0) (z_0 Nat_0) (z_1 Nat_0) (xs_0 list_0) (x_21 list_0) (x_22 list_0))
	(=>	(and (= x_21 (cons_0 z_1 x_22))
			(take_0 x_22 z_0 xs_0)
			(= x_0 (succ_0 z_0))
			(= y_0 (cons_0 z_1 xs_0)))
		(take_0 x_21 x_0 y_0))))
(assert (forall ((x_0 Nat_0) (y_0 list_0) (z_0 Nat_0) (x_23 list_0))
	(=>	(and (= x_23 nil_0)
			(= x_0 (succ_0 z_0))
			(= y_0 nil_0))
		(take_0 x_23 x_0 y_0))))
(assert (forall ((x_0 Nat_0) (y_0 list_0) (x_24 list_0))
	(=>	(and (= x_24 nil_0)
			(= x_0 zero_0))
		(take_0 x_24 x_0 y_0))))
(declare-fun plus_0 (Nat_0 Nat_0 Nat_0) Bool)
(assert (forall ((x_1 Nat_0) (y_1 Nat_0) (z_2 Nat_0) (x_25 Nat_0) (x_26 Nat_0))
	(=>	(and (= x_25 (succ_0 x_26))
			(plus_0 x_26 z_2 y_1)
			(= x_1 (succ_0 z_2)))
		(plus_0 x_25 x_1 y_1))))
(assert (forall ((x_1 Nat_0) (y_1 Nat_0) (x_27 Nat_0))
	(=>	(and (= x_27 y_1)
			(= x_1 zero_0))
		(plus_0 x_27 x_1 y_1))))
(declare-fun minus_0 (Nat_0 Nat_0 Nat_0) Bool)
(assert (forall ((x_2 Nat_0) (y_2 Nat_0) (z_3 Nat_0) (y_3 Nat_0) (x_28 Nat_0) (x_29 Nat_0))
	(=>	(and (= x_28 x_29)
			(minus_0 x_29 z_3 y_3)
			(= x_2 (succ_0 z_3))
			(= y_2 (succ_0 y_3)))
		(minus_0 x_28 x_2 y_2))))
(assert (forall ((x_2 Nat_0) (y_2 Nat_0) (z_3 Nat_0) (x_30 Nat_0))
	(=>	(and (= x_30 zero_0)
			(= x_2 (succ_0 z_3))
			(= y_2 zero_0))
		(minus_0 x_30 x_2 y_2))))
(assert (forall ((x_2 Nat_0) (y_2 Nat_0) (x_31 Nat_0))
	(=>	(and (= x_31 zero_0)
			(= x_2 zero_0))
		(minus_0 x_31 x_2 y_2))))
(declare-fun nmsorttdhalf_0 (Nat_0 Nat_0) Bool)
(assert (forall ((x_3 Nat_0) (x_32 Nat_0))
	(=>	(and (= x_32 zero_0)
			(= x_3 (succ_0 zero_0)))
		(nmsorttdhalf_0 x_32 x_3))))
(assert (forall ((x_3 Nat_0) (y_4 Nat_0) (x_33 Nat_0) (x_34 Nat_0) (x_35 Nat_0) (x_36 Nat_0))
	(=>	(and (= x_33 x_36)
			(minus_0 x_34 (succ_0 y_4) (succ_0 (succ_0 zero_0)))
			(nmsorttdhalf_0 x_35 x_34)
			(plus_0 x_36 (succ_0 zero_0) x_35)
			(diseqNat_1 x_3 (succ_0 zero_0))
			(= x_3 (succ_0 y_4)))
		(nmsorttdhalf_0 x_33 x_3))))
(assert (forall ((x_3 Nat_0) (x_37 Nat_0))
	(=>	(and (= x_37 zero_0)
			(= x_3 (succ_0 zero_0)))
		(nmsorttdhalf_0 x_37 x_3))))
(assert (forall ((x_3 Nat_0) (x_38 Nat_0))
	(=>	(and (= x_38 zero_0)
			(diseqNat_1 x_3 (succ_0 zero_0))
			(= x_3 zero_0))
		(nmsorttdhalf_0 x_38 x_3))))
(declare-fun leq_0 (Bool Nat_0 Nat_0) Bool)
(assert (forall ((x_4 Nat_0) (y_5 Nat_0) (z_4 Nat_0) (x_5 Nat_0) (x_39 Bool) (x_40 Bool))
	(=>	(and (= x_39 x_40)
			(leq_0 x_40 z_4 x_5)
			(= x_4 (succ_0 z_4))
			(= y_5 (succ_0 x_5)))
		(leq_0 x_39 x_4 y_5))))
(assert (forall ((x_4 Nat_0) (y_5 Nat_0) (z_4 Nat_0) (x_41 Bool))
	(=>	(and (= x_41 false)
			(= x_4 (succ_0 z_4))
			(= y_5 zero_0))
		(leq_0 x_41 x_4 y_5))))
(assert (forall ((x_4 Nat_0) (y_5 Nat_0) (x_42 Bool))
	(=>	(and (= x_42 true)
			(= x_4 zero_0))
		(leq_0 x_42 x_4 y_5))))
(declare-fun lmerge_0 (list_0 list_0 list_0) Bool)
(assert (forall ((x_6 list_0) (y_6 list_0) (z_5 Nat_0) (x_7 list_0) (x_8 Nat_0) (x_9 list_0) (x_44 list_0) (x_45 list_0) (x_43 Bool))
	(=>	(and (= x_44 (cons_0 z_5 x_45))
			(lmerge_0 x_45 x_7 (cons_0 x_8 x_9))
			(= x_6 (cons_0 z_5 x_7))
			(= y_6 (cons_0 x_8 x_9))
			(= x_43 true)
			(leq_0 x_43 z_5 x_8))
		(lmerge_0 x_44 x_6 y_6))))
(assert (forall ((x_6 list_0) (y_6 list_0) (z_5 Nat_0) (x_7 list_0) (x_8 Nat_0) (x_9 list_0) (x_47 list_0) (x_48 list_0) (x_46 Bool))
	(=>	(and (= x_47 (cons_0 x_8 x_48))
			(lmerge_0 x_48 (cons_0 z_5 x_7) x_9)
			(= x_6 (cons_0 z_5 x_7))
			(= y_6 (cons_0 x_8 x_9))
			(= x_46 false)
			(leq_0 x_46 z_5 x_8))
		(lmerge_0 x_47 x_6 y_6))))
(assert (forall ((x_6 list_0) (y_6 list_0) (z_5 Nat_0) (x_7 list_0) (x_49 list_0))
	(=>	(and (= x_49 (cons_0 z_5 x_7))
			(= x_6 (cons_0 z_5 x_7))
			(= y_6 nil_0))
		(lmerge_0 x_49 x_6 y_6))))
(assert (forall ((x_6 list_0) (y_6 list_0) (x_50 list_0))
	(=>	(and (= x_50 y_6)
			(= x_6 nil_0))
		(lmerge_0 x_50 x_6 y_6))))
(declare-fun length_0 (Nat_0 list_0) Bool)
(assert (forall ((x_10 list_0) (y_7 Nat_0) (l_0 list_0) (x_51 Nat_0) (x_52 Nat_0) (x_53 Nat_0))
	(=>	(and (= x_51 x_53)
			(length_0 x_52 l_0)
			(plus_0 x_53 (succ_0 zero_0) x_52)
			(= x_10 (cons_0 y_7 l_0)))
		(length_0 x_51 x_10))))
(assert (forall ((x_10 list_0) (x_54 Nat_0))
	(=>	(and (= x_54 zero_0)
			(= x_10 nil_0))
		(length_0 x_54 x_10))))
(declare-fun drop_0 (list_0 Nat_0 list_0) Bool)
(assert (forall ((x_11 Nat_0) (y_8 list_0) (z_6 Nat_0) (z_7 Nat_0) (xs_1 list_0) (x_55 list_0) (x_56 list_0))
	(=>	(and (= x_55 x_56)
			(drop_0 x_56 z_6 xs_1)
			(= x_11 (succ_0 z_6))
			(= y_8 (cons_0 z_7 xs_1)))
		(drop_0 x_55 x_11 y_8))))
(assert (forall ((x_11 Nat_0) (y_8 list_0) (z_6 Nat_0) (x_57 list_0))
	(=>	(and (= x_57 nil_0)
			(= x_11 (succ_0 z_6))
			(= y_8 nil_0))
		(drop_0 x_57 x_11 y_8))))
(assert (forall ((x_11 Nat_0) (y_8 list_0) (x_58 list_0))
	(=>	(and (= x_58 y_8)
			(= x_11 zero_0))
		(drop_0 x_58 x_11 y_8))))
(declare-fun nmsorttd_0 (list_0 list_0) Bool)
(assert (forall ((x_12 list_0) (y_9 Nat_0) (z_8 list_0) (x_13 Nat_0) (x_14 list_0) (k_0 Nat_0) (x_61 list_0) (x_62 list_0) (x_63 list_0) (x_64 list_0) (x_65 list_0) (x_66 list_0) (x_59 Nat_0) (x_60 Nat_0))
	(=>	(and (= x_61 x_66)
			(take_0 x_62 k_0 (cons_0 y_9 (cons_0 x_13 x_14)))
			(nmsorttd_0 x_63 x_62)
			(drop_0 x_64 k_0 (cons_0 y_9 (cons_0 x_13 x_14)))
			(nmsorttd_0 x_65 x_64)
			(lmerge_0 x_66 x_63 x_65)
			(= x_12 (cons_0 y_9 z_8))
			(= z_8 (cons_0 x_13 x_14))
			(= k_0 x_60)
			(length_0 x_59 (cons_0 y_9 (cons_0 x_13 x_14)))
			(nmsorttdhalf_0 x_60 x_59))
		(nmsorttd_0 x_61 x_12))))
(assert (forall ((x_12 list_0) (y_9 Nat_0) (z_8 list_0) (x_67 list_0))
	(=>	(and (= x_67 (cons_0 y_9 nil_0))
			(= x_12 (cons_0 y_9 z_8))
			(= z_8 nil_0))
		(nmsorttd_0 x_67 x_12))))
(assert (forall ((x_12 list_0) (x_68 list_0))
	(=>	(and (= x_68 nil_0)
			(= x_12 nil_0))
		(nmsorttd_0 x_68 x_12))))
(declare-fun count_0 (Nat_0 Nat_0 list_0) Bool)
(assert (forall ((x_15 Nat_0) (y_10 list_0) (z_9 Nat_0) (ys_0 list_0) (x_69 Nat_0) (x_70 Nat_0) (x_71 Nat_0))
	(=>	(and (= x_69 x_71)
			(count_0 x_70 x_15 ys_0)
			(plus_0 x_71 (succ_0 zero_0) x_70)
			(= y_10 (cons_0 z_9 ys_0))
			(= x_15 z_9))
		(count_0 x_69 x_15 y_10))))
(assert (forall ((x_15 Nat_0) (y_10 list_0) (z_9 Nat_0) (ys_0 list_0) (x_72 Nat_0) (x_73 Nat_0))
	(=>	(and (= x_72 x_73)
			(count_0 x_73 x_15 ys_0)
			(= y_10 (cons_0 z_9 ys_0))
			(diseqNat_1 x_15 z_9))
		(count_0 x_72 x_15 y_10))))
(assert (forall ((x_15 Nat_0) (y_10 list_0) (x_74 Nat_0))
	(=>	(and (= x_74 zero_0)
			(= y_10 nil_0))
		(count_0 x_74 x_15 y_10))))
(assert (forall ((x_16 Nat_0) (y_11 Nat_0) (z_10 Nat_0) (x_75 Nat_0) (x_76 Nat_0) (x_77 Nat_0) (x_78 Nat_0))
	(=>	(and (diseqNat_1 x_76 x_78)
			(plus_0 x_75 y_11 z_10)
			(plus_0 x_76 x_16 x_75)
			(plus_0 x_77 x_16 y_11)
			(plus_0 x_78 x_77 z_10))
		false)))
(assert (forall ((x_17 Nat_0) (y_12 Nat_0) (x_79 Nat_0) (x_80 Nat_0))
	(=>	(and (diseqNat_1 x_79 x_80)
			(plus_0 x_79 x_17 y_12)
			(plus_0 x_80 y_12 x_17))
		false)))
(assert (forall ((x_18 Nat_0) (x_81 Nat_0))
	(=>	(and (diseqNat_1 x_81 x_18)
			(plus_0 x_81 x_18 zero_0))
		false)))
(assert (forall ((x_19 Nat_0) (x_82 Nat_0))
	(=>	(and (diseqNat_1 x_82 x_19)
			(plus_0 x_82 zero_0 x_19))
		false)))
(assert (forall ((x_20 Nat_0) (xs_2 list_0) (x_83 list_0) (x_84 Nat_0) (x_85 Nat_0))
	(=>	(and (diseqNat_1 x_84 x_85)
			(nmsorttd_0 x_83 xs_2)
			(count_0 x_84 x_20 x_83)
			(count_0 x_85 x_20 xs_2))
		false)))
(check-sat)
